

(define-fun <relation-lemma-debug-H7_1_0-H7_1_1-NewKey>
    ((H710-old <GameState_H7_<$<!n!>$>>)
     (H711-old <GameState_H7_<$<!n!>$>>)
     (H710-return <OracleReturn_H7_<$<!n!>$>_PRF_<$<!n!>$>_NewKey>)
     (H711-return <OracleReturn_H7_<$<!n!>$>_PRF_<$<!n!>$>_NewKey>)
     (k (Maybe Bits_n))
    )
  Bool
  (let ((state-H710 (<oracle-return-H7-<$<!n!>$>-PRF-<$<!n!>$>-NewKey-game-state> H710-return))
        (state-H711 (<oracle-return-H7-<$<!n!>$>-PRF-<$<!n!>$>-NewKey-game-state> H711-return))
        (retval0 (<oracle-return-H7-<$<!n!>$>-PRF-<$<!n!>$>-NewKey-return-value-or-abort> H710-return))
        (retval1 (<oracle-return-H7-<$<!n!>$>-PRF-<$<!n!>$>-NewKey-return-value-or-abort> H711-return)))
    (let ((nonces-H710     (<game-H7-<$<!n!>$>-pkgstate-Nonces> state-H710))
          (nonces-H710-old (<game-H7-<$<!n!>$>-pkgstate-Nonces> H710-old))
          (nonces-H711     (<game-H7-<$<!n!>$>-pkgstate-Nonces> state-H711))
          (nonces-H711-old (<game-H7-<$<!n!>$>-pkgstate-Nonces> H711-old))
          (mac-H710      (<game-H7-<$<!n!>$>-pkgstate-MAC> state-H710))
          (mac-H710-old  (<game-H7-<$<!n!>$>-pkgstate-MAC> H710-old))
          (mac-H711      (<game-H7-<$<!n!>$>-pkgstate-MAC> state-H711))
          (mac-H711-old  (<game-H7-<$<!n!>$>-pkgstate-MAC> H711-old))
          (game-H710     (<game-H7-<$<!n!>$>-pkgstate-KX>  state-H710))
          (game-H710-old (<game-H7-<$<!n!>$>-pkgstate-KX>  H710-old))
          (game-H711     (<game-H7-<$<!n!>$>-pkgstate-KX>  state-H711))
          (game-H711-old (<game-H7-<$<!n!>$>-pkgstate-KX>  H711-old))
          (prf-H710      (<game-H7-<$<!n!>$>-pkgstate-PRF> state-H710))
          (prf-H710-old  (<game-H7-<$<!n!>$>-pkgstate-PRF> H710-old))
          (prf-H711      (<game-H7-<$<!n!>$>-pkgstate-PRF>  state-H711))
          (prf-H711-old  (<game-H7-<$<!n!>$>-pkgstate-PRF> H711-old)))
      (let ((ctr0 (<pkg-state-KX_noprfkey-<$<!n!>$>-ctr_> game-H710))
            (ctr1 (<pkg-state-KX_noprfkey-<$<!n!>$>-ctr_> game-H711))
            (State0 (<pkg-state-KX_noprfkey-<$<!n!>$>-State> game-H710))
            (State1 (<pkg-state-KX_noprfkey-<$<!n!>$>-State> game-H711))
          (First0 (<pkg-state-KX_noprfkey-<$<!n!>$>-First> game-H710))
          (First1 (<pkg-state-KX_noprfkey-<$<!n!>$>-First> game-H711))
          (Second0 (<pkg-state-KX_noprfkey-<$<!n!>$>-Second> game-H710))
          (Second1 (<pkg-state-KX_noprfkey-<$<!n!>$>-Second> game-H711))
            (RevTested0       (<pkg-state-KX_noprfkey-<$<!n!>$>-RevTested> game-H710))
            (RevTested0-old   (<pkg-state-KX_noprfkey-<$<!n!>$>-RevTested> game-H710-old))
            (RevTested1       (<pkg-state-KX_noprfkey-<$<!n!>$>-RevTested> game-H711))
            (RevTestEval0     (<pkg-state-KX_noprfkey-<$<!n!>$>-RevTestEval> game-H710))
            (RevTestEval0-old (<pkg-state-KX_noprfkey-<$<!n!>$>-RevTestEval> game-H710-old))
            (RevTestEval1     (<pkg-state-KX_noprfkey-<$<!n!>$>-RevTestEval> game-H711))
            (RevTestEval1-old (<pkg-state-KX_noprfkey-<$<!n!>$>-RevTestEval> game-H711-old))
            (ReverseMac0 (<pkg-state-KX_noprfkey-<$<!n!>$>-ReverseMac> game-H710))
            (ReverseMac1 (<pkg-state-KX_noprfkey-<$<!n!>$>-ReverseMac> game-H711))
            (Fresh0           (<pkg-state-KX_noprfkey-<$<!n!>$>-Fresh> game-H710))
            (Fresh1           (<pkg-state-KX_noprfkey-<$<!n!>$>-Fresh> game-H711))
            (Nonces0          (<pkg-state-Nonces-<$<!n!>$>-Nonces> nonces-H710))
            (Nonces1          (<pkg-state-Nonces-<$<!n!>$>-Nonces> nonces-H711))
            (Keys0            (<pkg-state-MAC-<$<!n!>$>-Keys> mac-H710))
            (Keys1            (<pkg-state-MAC-<$<!n!>$>-Keys> mac-H711))
            (Values0     (<pkg-state-MAC-<$<!n!>$>-Values> mac-H710))
            (Values0-old (<pkg-state-MAC-<$<!n!>$>-Values> mac-H710-old))
            (Values1     (<pkg-state-MAC-<$<!n!>$>-Values> mac-H711))
            (Values1-old (<pkg-state-MAC-<$<!n!>$>-Values> mac-H711-old))
            (kid0     (<pkg-state-PRF-<$<!n!>$>-kid_> prf-H710))
            (kid0-old (<pkg-state-PRF-<$<!n!>$>-kid_> prf-H710-old))
            (kid1     (<pkg-state-PRF-<$<!n!>$>-kid_> prf-H711))
            (kid1-old (<pkg-state-PRF-<$<!n!>$>-kid_> prf-H711-old))
            (Ltk0     (<pkg-state-PRF-<$<!n!>$>-LTK> prf-H710))
            (Ltk0-old (<pkg-state-PRF-<$<!n!>$>-LTK> prf-H710-old))
            (Ltk1     (<pkg-state-PRF-<$<!n!>$>-LTK> prf-H711))
            (Ltk1-old (<pkg-state-PRF-<$<!n!>$>-LTK> prf-H711-old))
            (Prf0     (<pkg-state-PRF-<$<!n!>$>-PRF> prf-H710))
            (Prf0-old (<pkg-state-PRF-<$<!n!>$>-PRF> prf-H710-old))
            (Prf1     (<pkg-state-PRF-<$<!n!>$>-PRF> prf-H711))
            (Prf1-old (<pkg-state-PRF-<$<!n!>$>-PRF> prf-H711-old))
            (H0     (<pkg-state-PRF-<$<!n!>$>-H> prf-H710))
            (H0-old (<pkg-state-PRF-<$<!n!>$>-H> prf-H710-old))
            (H1     (<pkg-state-PRF-<$<!n!>$>-H> prf-H711))
            (H1-old (<pkg-state-PRF-<$<!n!>$>-H> prf-H711-old)))
        (and (= nonces-H710 nonces-H711)
           (= Ltk0 Ltk1)
           (= H0 H1)
           (= kid0 kid1)
           (= ctr0 ctr1)
           (= State0 State1)
           (= RevTested0 RevTested1)
           (= Fresh0 Fresh1)
           (= Keys0 Keys1)
           (= Values0 Values1)
           (= First0 First1)
           (= Second0 Second1)
           (= mac-H710-old mac-H710)
           (= mac-H711-old mac-H711)
           (= nonces-H710 nonces-H710-old)
           (= nonces-H711 nonces-H711-old)
           (= game-H710 game-H710-old)
           (= game-H711 game-H711-old)
           (= Prf0 Prf0-old)
           (= Prf1 Prf1-old)
           (= kid0 (+ 1 kid0-old))
           (= kid1 (+ 1 kid1-old))

           
             ;;(reverse-mac-matches Values0 ReverseMac0)

           )))))
